p cnf 343 568
31 -32 0
-30 -32 0
30 -31 32 0
32 -33 0
-32 33 0
33 -34 0
-33 34 0
-36 34 0
36 -34 0
-37 36 0
37 -36 0
-38 37 0
38 -37 0
-40 -36 0
40 36 0
-41 40 0
41 -40 0
-42 -37 0
-42 -41 0
41 42 37 0
-43 42 0
-42 43 0
-38 -44 0
44 38 0
-45 -36 0
41 -45 0
45 -41 36 0
-44 45 0
-52 34 0
-34 52 0
54 -55 0
-53 -55 0
53 55 -54 0
-56 -34 0
-55 -56 0
55 56 34 0
-56 -57 0
56 57 0
-58 -57 0
58 57 0
-59 -34 0
55 -59 0
59 -55 34 0
-60 -59 0
-60 58 0
-60 -52 0
60 59 52 -58 0
59 -61 0
-59 61 0
-62 -61 0
-62 -58 0
62 61 58 0
-63 62 0
-63 -52 0
-62 63 52 0
-60 -64 0
64 60 0
61 -65 0
57 -65 0
-52 -65 0
-61 65 52 -57 0
62 -66 0
-66 52 0
-62 -52 66 0
-64 65 66 0
-77 38 0
-38 77 0
77 45 0
-81 -77 0
81 77 0
-82 -45 0
82 45 0
-88 45 0
-88 65 0
88 -45 -65 0
-89 -82 0
81 -89 0
-89 -88 0
89 88 -81 82 0
-89 -90 0
90 89 0
-91 -90 0
90 91 0
-94 36 0
94 -36 0
-95 -94 0
95 94 0
-96 95 0
96 -95 0
93 -98 0
-93 98 0
-98 -99 0
92 -99 0
-92 99 98 0
-101 99 0
101 -99 0
-102 -81 0
-102 -101 0
101 81 102 0
-103 81 0
-103 88 0
103 -88 -81 0
-104 -103 0
-102 -104 0
103 102 104 0
-104 -105 0
104 105 0
-99 -107 0
99 107 0
-108 -81 0
-107 -108 0
81 107 108 0
-109 108 0
-108 109 0
-110 -109 0
-110 -105 0
105 110 109 0
-111 110 0
-111 -91 0
-110 111 91 0
-112 111 0
-111 112 0
-108 -113 0
105 -113 0
-91 -113 0
-105 113 108 91 0
-117 -113 0
113 117 0
-118 109 0
104 -118 0
-118 -91 0
-104 91 118 -109 0
110 -119 0
-119 91 0
-110 -91 119 0
-117 119 118 0
-130 60 0
130 -60 0
-131 -66 0
-131 -65 0
-131 -130 0
130 65 66 131 0
-132 131 0
128 -132 0
-128 -131 132 0
-133 65 0
-131 -133 0
133 131 -65 0
-134 -133 0
-132 -134 0
134 133 132 0
-135 -65 0
-135 -130 0
-131 -135 0
130 65 131 135 0
-136 -135 0
-136 -134 0
136 134 135 0
-138 131 0
-135 -138 0
137 -138 0
-131 135 -137 138 0
-139 66 0
-139 135 0
-135 -66 139 0
-140 -139 0
-138 -140 0
140 138 139 0
-141 -140 0
141 140 0
92 -144 0
144 -92 0
93 -145 0
-144 -145 0
144 -93 145 0
-146 -65 0
-145 -146 0
65 145 146 0
-131 -147 -148 0
-146 -148 131 0
-131 147 148 0
148 146 131 0
-149 -135 0
-149 -148 0
148 149 135 0
-149 -151 0
151 149 0
-152 -151 0
151 152 0
-153 -65 0
145 -153 0
-145 65 153 0
-131 -154 -155 0
-153 -155 131 0
-131 154 155 0
155 153 131 0
-156 -135 0
-156 -155 0
155 156 135 0
-157 156 0
157 -156 0
-157 -158 0
-152 -158 0
158 152 157 0
158 -159 0
-141 -159 0
141 159 -158 0
-160 159 0
-160 -136 0
136 160 -159 0
-156 -161 0
152 -161 0
-161 -141 0
-161 -136 0
136 141 156 161 -152 0
-163 131 0
-135 -163 0
162 -163 0
-131 135 -162 163 0
-163 -164 0
164 163 0
-165 -161 -164 0
-160 164 -165 0
165 161 -164 0
160 164 165 0
157 -166 0
151 -166 0
-166 -141 0
-166 -136 0
164 -166 0
136 -151 141 166 -164 -157 0
158 -167 0
141 -167 0
-167 -136 0
164 -167 0
-141 136 167 -164 -158 0
159 -168 0
136 -168 0
164 -168 0
-136 168 -164 -159 0
168 -165 167 166 0
-176 45 0
-108 -176 0
-104 -176 0
-176 90 0
176 -90 -45 104 108 0
-177 -176 0
177 176 0
-178 95 0
178 -95 0
-179 -96 0
-178 -179 0
179 178 96 0
-184 -96 0
184 96 0
-185 -184 0
185 184 0
-186 185 0
-186 177 0
-177 186 -185 0
-187 -179 0
187 179 0
-188 -187 0
188 187 0
-189 188 0
-189 177 0
-188 189 -177 0
-189 -186 0
-227 113 0
227 -113 0
-229 -119 0
-229 -118 0
-229 -227 0
227 229 118 119 0
-230 229 0
226 -230 0
-226 -229 230 0
-231 118 0
-229 -231 0
-118 229 231 0
-232 -231 0
-230 -232 0
232 230 231 0
-118 -233 0
-233 -227 0
-229 -233 0
227 229 118 233 0
-234 -233 0
-234 -232 0
232 234 233 0
-235 -119 0
235 119 0
-234 -237 0
237 234 0
-238 -237 0
237 238 0
-240 229 0
-240 -233 0
239 -240 0
-229 -239 233 240 0
-241 119 0
-241 166 0
-166 -119 241 0
-242 -235 0
-242 233 0
-242 -241 0
-233 241 242 235 0
-243 -242 0
-240 -243 0
243 240 242 0
-244 -243 0
244 243 0
-247 179 0
177 -247 0
247 -179 -177 0
-189 -248 0
-248 186 0
248 -186 189 0
-249 248 0
-249 -247 0
249 -248 247 0
-250 -249 0
246 -250 0
-246 250 249 0
-250 -251 0
245 -251 0
251 -245 250 0
-252 -118 0
-251 -252 0
251 252 118 0
-229 -253 -254 0
-252 -254 229 0
-229 253 254 0
254 252 229 0
-255 -233 0
-255 -254 0
254 255 233 0
-256 233 0
-256 241 0
-241 -233 256 0
-257 -256 0
-255 -257 0
257 255 256 0
-258 -257 0
258 257 0
-259 -118 0
-259 251 0
259 -251 118 0
-229 -260 -261 0
-261 -259 229 0
-229 260 261 0
261 259 229 0
-262 -233 0
-261 -262 0
261 262 233 0
262 -263 0
263 -262 0
-264 -263 0
-264 -258 0
263 264 258 0
-265 264 0
-244 -265 0
-264 265 244 0
-266 265 0
-266 -238 0
266 -265 238 0
-262 -267 0
-267 258 0
-244 -267 0
-267 -238 0
-258 267 262 238 244 0
-269 229 0
-269 -233 0
268 -269 0
-229 -268 233 269 0
-269 -270 0
270 269 0
-271 -267 -270 0
-266 270 -271 0
271 267 -270 0
266 270 271 0
263 -272 0
257 -272 0
-244 -272 0
-272 -238 0
270 -272 0
272 -263 244 238 -270 -257 0
-273 264 0
-273 244 0
-273 -238 0
270 -273 0
-264 -244 238 -270 273 0
265 -274 0
-274 238 0
270 -274 0
274 -238 -270 -265 0
-274 -275 0
-273 -275 0
-272 -275 0
271 -275 0
272 -271 275 273 274 0
-280 -188 0
-280 247 0
188 -247 280 0
-281 186 0
-280 -281 0
281 -186 280 0
-282 -281 0
282 281 0
-283 -282 0
283 282 0
-189 -284 0
-186 -284 0
247 -284 0
-247 186 284 189 0
-285 284 0
-284 285 0
-290 -164 0
160 -290 0
-160 164 290 0
164 -291 0
-291 161 0
291 -161 -164 0
-292 -168 0
-292 -167 0
-292 -166 0
-292 -291 0
-290 -292 0
168 291 167 290 292 166 0
-293 292 0
289 -293 0
-289 -292 293 0
-294 166 0
-292 -294 0
-166 292 294 0
-295 -294 0
-293 -295 0
295 293 294 0
-296 -166 0
-296 -291 0
-292 -296 0
296 291 166 292 0
-297 -296 0
-297 -295 0
295 296 297 0
-299 292 0
-296 -299 0
298 -299 0
-292 296 -298 299 0
118 -300 0
-300 167 0
-118 -167 300 0
-301 -168 0
-301 -167 0
301 168 167 0
-302 -301 0
296 -302 0
-302 -300 0
302 -296 300 301 0
-303 -302 0
-299 -303 0
303 302 299 0
-304 -303 0
303 304 0
-309 246 0
-246 309 0
-310 -166 0
-309 -310 0
310 309 166 0
-292 -311 -312 0
-312 -310 292 0
-292 311 312 0
310 312 292 0
-313 -296 0
-312 -313 0
296 312 313 0
-314 301 0
-314 290 0
-290 314 -301 0
-314 -315 0
-315 -300 0
315 314 300 0
-316 296 0
-316 -315 0
316 315 -296 0
-317 -316 0
-313 -317 0
317 313 316 0
-318 -317 0
318 317 0
-319 -166 0
-319 309 0
319 -309 166 0
-292 -320 -321 0
-319 -321 292 0
-292 320 321 0
321 319 292 0
-322 -296 0
-321 -322 0
321 296 322 0
-323 322 0
-322 323 0
-323 -324 0
-324 -318 0
318 324 323 0
-325 324 0
-325 -304 0
304 325 -324 0
-326 325 0
-326 -297 0
326 -325 297 0
-322 -327 0
318 -327 0
-327 -304 0
-297 -327 0
-318 327 322 304 297 0
-329 292 0
-296 -329 0
328 -329 0
-292 296 -328 329 0
-329 -330 0
330 329 0
-327 -331 -330 0
-326 330 -331 0
331 327 -330 0
330 331 326 0
-332 323 0
317 -332 0
-304 -332 0
-297 -332 0
330 -332 0
-323 -317 297 304 -330 332 0
324 -333 0
304 -333 0
-297 -333 0
330 -333 0
333 -304 297 -330 -324 0
325 -334 0
-334 297 0
330 -334 0
-325 -297 -330 334 0
-334 -335 0
-333 -335 0
-332 -335 0
331 -335 0
333 -331 335 334 332 0
66 -34 0
-57 65 34 0
-56 119 0
-117 34 -57 0
113 91 108 81 0
-34 167 0
168 139 -65 0
65 -151 135 166 131 141 0
267 -241 238 240 -233 0
-119 -271 273 0
274 -118 256 242 0
272 -257 233 118 229 244 238 0
272 -271 119 274 0
-166 316 334 302 0
-317 324 297 304 -330 332 0
317 327 316 297 292 304 0
-233 65 -331 334 332 0
-119 233 0
333 -296 300 -330 297 301 0
-167 333 -331 0
302 300 -168 0
65 34 -331 334 332 0
